shikaku_converter/resources/data/25×25_1.dzn
size_x = 25;
size_y = 25;

given = [|
2, 2, 3|
2, 20, 2|
2, 22, 8|
2, 25, 4|
3, 3, 3|
3, 22, 4|
4, 1, 4|
4, 3, 2|
4, 24, 2|
5, 2, 2|
5, 3, 2|
5, 20, 2|
6, 14, 96|
7, 23, 42|
8, 1, 4|
8, 20, 9|
11, 1, 4|
12, 11, 84|
12, 16, 26|
12, 25, 42|
14, 8, 90|
14, 19, 16|
15, 20, 12|
18, 21, 2|
18, 23, 2|
19, 12, 65|
19, 14, 4|
19, 20, 3|
20, 17, 2|
20, 21, 8|
20, 23, 2|
21, 17, 2|
21, 22, 3|
22, 17, 6|
22, 19, 2|
23, 14, 6|
23, 21, 4|
23, 22, 2|
23, 23, 3|
24, 1, 2|
24, 12, 18|
24, 13, 2|
24, 14, 20|
25, 3, 4|];
