shikaku_converter/resources/tasks/25×25_1.txt
z3q2a8b4b3r4c4a2t2b2_2p2r96zg42b4r9zzc4zh84d26h42zf90j16y12zzw2a2m65a4e3u2c8a2r2d3s6a2s6f4_2_3b2j18_2_20m4v